46
23
0 24 25 30 31 36 37 38 39 40 41 42 43 44
1 24 25 26 27 29 31 32 34 36 40 41 42
2 24 25 26 27 29 30 31 32 33 36 37 38 39 40 41 42 43
3 23 24 26 29 31 32 34 36 39 40 41 42
4 24 25 26 29 30 31 32 33 34 36 37 38 39 40 43 45
5 24 25 26 29 30 31 32 34 37 38 40 41 44
6 23 24 25 26 27 29 31 32 37 38 39 41 42 43 44 45
7 24 25 30 32 34 36 39 40 41 43
8 23 25 29 30 31 34 36 37 38 39 40 43 45
9 24 25 26 30 31 32 34 37 39 43
10 26 27 29 30 31 36 37 38 39 40 41 44
11 23 24 25 26 29 30 32 34 36 37 38
12 26 27 29 31 34 38 39 40 41 44
13 24 27 31 32 33 38 40 42 43
14 29 32 33 38 40 41 42 44
15 23 24 25 33 34 35 39 40 44
16 23 26 27 30 31 32 33 39 40 41
17 30 39 42
18 27 28 36
19 32 33 44
20 28 30 37
21 24 26 30 35 41
22
